param n := 60;
param c := 10000
param : V : p w :=
   0	  31	 366
   1	  36	 268
   2	  92	 366
   3	  75	 430
   4	  55	 263
   5	  45	 307
   6	  43	 414
   7	  26	 287
   8	  46	 299
   9	  23	 495
  10	  22	 251
  11	   4	 254
  12	  19	 474
  13	  29	 252
  14	  97	 274
  15	  45	 370
  16	  80	 269
  17	  61	 361
  18	  26	 473
  19	  12	 252
  20	  98	 275
  21	   7	 472
  22	  14	 259
  23	  90	 269
  24	  46	 444
  25	  29	 258
  26	   5	 298
  27	  19	 439
  28	  41	 273
  29	  98	 288
  30	  13	 445
  31	  53	 272
  32	  58	 283
  33	  92	 419
  34	  25	 261
  35	  67	 320
  36	  39	 363
  37	  35	 271
  38	  51	 366
  39	  68	 355
  40	  73	 273
  41	  16	 372
  42	  46	 466
  43	   2	 262
  44	  28	 272
  45	  68	 357
  46	   4	 292
  47	  34	 351
  48	  63	 395
  49	  82	 255
  50	  45	 350
  51	  78	 350
  52	  31	 303
  53	  28	 347
  54	  71	 450
  55	  71	 252
  56	  57	 298
  57	   2	 410
  58	  38	 275
  59	  17	 315
;

set E :=
   0	   3
   0	   5
   0	   8
   0	  29
   0	  31
   0	  36
   0	  39
   0	  40
   0	  41
   0	  44
   0	  48
   0	  54
   0	  56
   0	  58
   1	   5
   1	  13
   1	  18
   1	  20
   1	  23
   1	  24
   1	  30
   1	  35
   1	  36
   1	  40
   1	  47
   1	  49
   1	  54
   1	  55
   1	  56
   2	  19
   2	  23
   2	  26
   2	  28
   2	  30
   2	  41
   2	  44
   3	   6
   3	   8
   3	  22
   3	  26
   3	  28
   3	  29
   3	  38
   3	  46
   3	  48
   3	  50
   3	  56
   3	  58
   4	   5
   4	  10
   4	  12
   4	  20
   4	  27
   4	  29
   4	  30
   4	  36
   4	  37
   4	  46
   4	  52
   5	   6
   5	  10
   5	  12
   5	  16
   5	  17
   5	  20
   5	  24
   5	  26
   5	  32
   5	  33
   5	  37
   5	  38
   5	  42
   5	  50
   5	  53
   5	  56
   5	  57
   6	  22
   6	  23
   6	  29
   6	  31
   6	  36
   6	  37
   6	  38
   6	  39
   6	  50
   7	   9
   7	  16
   7	  20
   7	  34
   7	  39
   7	  41
   7	  43
   7	  44
   7	  51
   7	  59
   8	   9
   8	  15
   8	  17
   8	  18
   8	  24
   8	  25
   8	  39
   8	  48
   8	  50
   9	  17
   9	  29
   9	  31
   9	  32
   9	  36
   9	  47
   9	  53
  10	  15
  10	  19
  10	  21
  10	  24
  10	  28
  10	  34
  10	  39
  10	  49
  10	  52
  10	  56
  11	  13
  11	  32
  11	  38
  11	  40
  11	  50
  11	  56
  12	  16
  12	  20
  12	  23
  12	  25
  12	  26
  12	  28
  12	  39
  12	  41
  12	  45
  12	  50
  13	  17
  13	  24
  13	  44
  13	  48
  13	  53
  13	  56
  13	  58
  14	  16
  14	  21
  14	  38
  14	  44
  14	  49
  14	  55
  14	  56
  14	  59
  15	  17
  15	  31
  15	  34
  15	  36
  15	  38
  15	  39
  15	  47
  15	  53
  15	  57
  16	  20
  16	  22
  16	  24
  16	  25
  16	  28
  16	  29
  16	  44
  16	  46
  16	  57
  17	  28
  17	  32
  17	  35
  17	  41
  17	  45
  17	  50
  17	  53
  17	  55
  17	  59
  18	  19
  18	  25
  18	  32
  18	  46
  18	  48
  18	  50
  19	  25
  19	  30
  19	  32
  19	  33
  19	  39
  19	  49
  19	  50
  19	  53
  20	  26
  20	  34
  20	  37
  20	  43
  20	  46
  20	  48
  20	  51
  20	  58
  21	  22
  21	  25
  21	  26
  21	  29
  21	  31
  21	  34
  21	  41
  21	  45
  21	  53
  21	  57
  22	  35
  22	  44
  22	  48
  22	  52
  23	  24
  23	  25
  23	  33
  23	  34
  23	  36
  23	  42
  23	  49
  23	  52
  23	  53
  24	  27
  24	  37
  24	  41
  24	  46
  24	  48
  24	  49
  24	  57
  24	  59
  25	  30
  25	  35
  25	  39
  25	  45
  25	  50
  25	  52
  25	  59
  26	  42
  26	  46
  26	  53
  26	  58
  27	  33
  27	  37
  27	  40
  27	  49
  28	  34
  28	  35
  28	  36
  28	  37
  28	  38
  28	  39
  29	  30
  29	  35
  29	  38
  29	  42
  29	  43
  29	  45
  29	  46
  29	  48
  30	  31
  30	  32
  30	  34
  30	  36
  30	  41
  30	  42
  30	  45
  30	  48
  30	  51
  30	  56
  31	  32
  31	  34
  31	  35
  31	  39
  31	  43
  31	  44
  31	  45
  31	  51
  31	  55
  32	  35
  32	  38
  32	  42
  32	  43
  32	  46
  32	  56
  32	  58
  33	  35
  33	  40
  33	  42
  33	  44
  33	  46
  33	  55
  34	  38
  34	  41
  34	  46
  35	  37
  35	  38
  35	  43
  35	  46
  36	  38
  36	  39
  36	  40
  36	  43
  36	  48
  36	  55
  36	  59
  37	  42
  37	  50
  37	  55
  37	  56
  37	  58
  38	  44
  38	  47
  38	  49
  38	  53
  38	  55
  38	  57
  38	  59
  39	  43
  39	  45
  39	  46
  39	  47
  40	  41
  40	  43
  40	  49
  40	  52
  40	  55
  40	  56
  40	  57
  40	  58
  42	  50
  42	  55
  42	  57
  42	  59
  43	  48
  43	  54
  44	  46
  44	  50
  44	  52
  45	  46
  45	  58
  46	  48
  46	  50
  46	  54
  46	  57
  46	  58
  47	  48
  47	  50
  47	  55
  48	  51
  48	  52
  48	  56
  48	  58
  49	  54
  53	  55
  55	  59
  56	  59
  57	  58
  58	  59
;
